Version identifier: 20.1.0.0 | 2020-11-10 | 9bedb6d68
Tried aggregator 10 times.
MIP Presolve eliminated 412 rows and 260 columns.
MIP Presolve added 13 rows and 13 columns.
MIP Presolve modified 450 coefficients.
Aggregator did 65 substitutions.
Reduced MIP has 4 rows, 8 columns, and 12 nonzeros.
Reduced MIP has 4 binaries, 4 generals, 0 SOSs, and 0 indicators.
Presolve time = 0.00 sec. (1.36 ticks)
Found incumbent of value 6.000000 after 0.01 sec. (1.41 ticks)
Probing time = 0.00 sec. (0.00 ticks)
Tried aggregator 1 time.
MIP Presolve eliminated 3 rows and 5 columns.
MIP Presolve added 1 rows and 1 columns.
Reduced MIP has 2 rows, 4 columns, and 6 nonzeros.
Reduced MIP has 2 binaries, 2 generals, 0 SOSs, and 0 indicators.
Presolve time = 0.00 sec. (0.01 ticks)
Probing time = 0.00 sec. (0.00 ticks)
Tried aggregator 1 time.
MIP Presolve eliminated 1 rows and 1 columns.
MIP Presolve added 1 rows and 1 columns.
Reduced MIP has 2 rows, 4 columns, and 6 nonzeros.
Reduced MIP has 2 binaries, 2 generals, 0 SOSs, and 0 indicators.
Presolve time = 0.00 sec. (0.00 ticks)
Probing time = 0.00 sec. (0.00 ticks)
MIP emphasis: balance optimality and feasibility.
MIP search method: dynamic search.
Parallel mode: deterministic, using up to 24 threads.
Root relaxation solution time = 0.00 sec. (0.00 ticks)

        Nodes                                         Cuts/
   Node  Left     Objective  IInf  Best Integer    Best Bound    ItCnt     Gap

*     0+    0                            6.0000        5.0000            16.67%
      0     0        cutoff              6.0000                      1    0.00%

Root node processing (before b&c):
  Real time             =    0.01 sec. (2.46 ticks)
Parallel b&c, 24 threads:
  Real time             =    0.00 sec. (0.00 ticks)
  Sync time (average)   =    0.00 sec.
  Wait time (average)   =    0.00 sec.
                          ------------
Total (root+branch&cut) =    0.01 sec. (2.46 ticks)

Solution status = Optimal
Solution LB = 6
Solution UB = 6
Runtime = 0.01859 seconds
	Command being timed: "/home/min/git_repos/CS598MEBProject/CNT-ILP/build/cnt -s 2 ./output/k4_n15/simC_c1_k4_n15_u1_s3_del04.input-right.cnp"
	User time (seconds): 0.01
	System time (seconds): 0.01
	Percent of CPU this job got: 123%
	Elapsed (wall clock) time (h:mm:ss or m:ss): 0:00.02
	Average shared text size (kbytes): 0
	Average unshared data size (kbytes): 0
	Average stack size (kbytes): 0
	Average total size (kbytes): 0
	Maximum resident set size (kbytes): 21176
	Average resident set size (kbytes): 0
	Major (requiring I/O) page faults: 0
	Minor (reclaiming a frame) page faults: 2667
	Voluntary context switches: 259
	Involuntary context switches: 2
	Swaps: 0
	File system inputs: 0
	File system outputs: 16
	Socket messages sent: 0
	Socket messages received: 0
	Signals delivered: 0
	Page size (bytes): 4096
	Exit status: 0
